Route #1: 32 33 31 35 37 38 39 36 34
Route #2: 47 49 52 50 51 48 45 46 44 40 41 42 43
Route #3: 55 54 53 56 58 60 59 57
Route #4: 65 63 74 62 66 67
Route #5: 69 68 64 61 72 80 79 77 73 70 71 76 78 81
Route #6: 91 89 88 85 84 82 83 86 87 90
Route #7: 98 96 95 94 92 93 97 100 99
Route #8: 5 3 7 8 11 9 6 4 2 1 75
Route #9: 13 17 18 19 15 16 14 12 10
Route #10: 21 22 23 26 28 30 29 27 25 24 20
Cost 820
